certificates/rado_a14_c250_N27.drat
-25 -27 0
d -25 -18 -27 0
18 -9 19 0
19 25 0
-18 -26 -19 0
18 -27 0
-27 0
-18 -19 0
d -18 -26 -19 0
-19 0
3 0
25 0
11 0
18 0
-16 0
-20 0
-1 0
-5 0
-23 0
-9 0
-13 0
0
